25
    1     7     7
    2    16    16
    3    20    20
    4    16    16
    5     6     6
    6    14    14
    7     3     3
    8     6     6
    9     8     8
   10    11    11
   11     5     5
   12     7     7
   13    13    13
   14    15    15
   15    15    15
   16    17    17
   17    13    13
   18    12    12
   19     6     6
   20     8     8
   21    15    15
   22    17    17
   23    11    11
   24     1     1
   25    12    12
69
